data/benchmarks/bayes/75-10-1-q.cnf
p cnf 460 443
c weights 0.0104091 0.9895909 1 1 1 1 1 1 1 1 1 1 1 1 1 1 1 1 1 1 1 1 1 1 1 1 1 1 1 1 1 1 1 1 1 1 1 1 1 1 1 1 1 1 1 1 1 1 1 1 1 1 1 1 1 1 1 1 1 1 1 1 1 1 1 1 1 1 1 1 1 1 1 1 1 1 1 1 1 1 1 1 1 1 1 1 1 1 1 1 1 1 1 1 1 1 1 1 1 1 1 1 1 1 1 1 1 1 1 1 1 1 1 1 1 1 1 1 1 1 1 1 1 1 1 1 1 1 1 1 1 1 1 1 1 1 1 1 1 1 1 1 1 1 1 1 1 1 1 1 1 1 1 1 1 1 1 1 1 1 1 1 1 1 1 1 1 1 1 1 1 1 1 1 1 1 1 1 1 1 1 1 1 1 1 1 1 1 1 1 1 1 1 1 1 1 1 1 1 1 0.5 0.5 0.5 0.5 0.5 0.5 0.5 0.5 0.5 0.5 0.5 0.5 0.694419 0.305581 0.409045 0.590955 0.5 0.5 0.5 0.5 0.5 0.5 0.5 0.5 0.5 0.5 0.5 0.5 0.5 0.5 0.5 0.5 0.0959506 0.9040494 0.210057 0.7899430000000001 0.637162 0.362838 0.351685 0.648315 0.393106 0.606894 0.196772 0.803228 0.314856 0.685144 0.293129 0.706871 0.5 0.5 0.5 0.5 0.5 0.5 0.5 0.5 0.5 0.5 0.5 0.5 0.5 0.5 0.5 0.5 0.5 0.5 0.5 0.5 0.5 0.5 0.5 0.5 0.5 0.5 0.5 0.5 0.5 0.5 0.5 0.5 0.14997 0.8500300000000001 0.280794 0.719206 0.712675 0.28732500000000005 0.787132 0.21286799999999995 0.5 0.5 0.5 0.5 0.5 0.5 0.5 0.5 0.5 0.5 0.5 0.5 0.5 0.5 0.5 0.5 0.5 0.5 0.5 0.5 0.5 0.5 0.5 0.5 0.5 0.5 0.5 0.5 0.82234 0.17766000000000004 0.800764 0.19923599999999997 0.906788 0.09321199999999996 0.1686 0.8314 0.960807 0.03919300000000003 0.239337 0.760663 0.911831 0.08816900000000005 0.110776 0.889224 0.5 0.5 0.5 0.5 0.5 0.5 0.5 0.5 0.5 0.5 0.5 0.5 0.5 0.5 0.5 0.5 0.5 0.5 0.5 0.5 0.5 0.5 0.5 0.5 0.5 0.5 0.5 0.5 0.5 0.5 0.5 0.5 0.813643 0.186357 0.815341 0.18465900000000002 0.753819 0.24618099999999998 0.720431 0.27956899999999996 0.712912 0.287088 0.681238 0.318762 0.223278 0.776722 0.624744 0.37525600000000003 0.743408 0.25659200000000004 0.24925 0.75075 0.689922 0.31007799999999996 0.896016 0.10398399999999997 0.5 0.5 0.5 0.5 0.818503 0.18149700000000002 0.31958 0.68042 0.698534 0.301466 0.254822 0.745178 0.5 0.5 0.5 0.5 0.5 0.5 0.5 0.5 0.5 0.5 0.5 0.5 0.5 0.5 0.5 0.5 0.5 0.5 0.5 0.5 0.5 0.5 0.5 0.5 0.5 0.5 0.5 0.5 0.5 0.5 0.5 0.5 0.5 0.5 0.5 0.5 0.5 0.5 0.5 0.5 0.5 0.5 0.5 0.5 0.5 0.5 0.5 0.5 0.5 0.5 0.5 0.5 0.5 0.5 0.5 0.5 0.5 0.5 0.5 0.5 0.5 0.5 0.5 0.5 0.854705 0.14529499999999995 0.683397 0.31660299999999997 0.5 0.5 0.5 0.5 0.5 0.5 0.5 0.5 0.5 0.5 0.5 0.5 0.5 0.5 0.5 0.5 0.5 0.5 0.5 0.5 0.5 0.5 0.5 0.5 0.5 0.5 0.5 0.5 0.5 0.5 0.5 0.5 0.5 0.5 0.5 0.5 0.5 0.5 0.5 0.5 0.5 0.5 0.5 0.5 0.5 0.5 0.5 0.5 0.57127 0.42873000000000006 0.339475 0.660525 0.045816 0.954184 0.911238 0.08876200000000001 0.5 0.5 0.5 0.5 0.5 0.5 0.5 0.5 0.5 0.5 0.5 0.5 0.5 0.5 0.5 0.5 0.51137 0.48863 0.415457 0.584543 0.5 0.5 0.5 0.5 0.5 0.5 0.5 0.5 0.5 0.5 0.5 0.5 0.5 0.5 0.5 0.5 0.5 0.5 0.5 0.5 0.5 0.5 0.5 0.5 0.662047 0.33795299999999995 0.4987 0.5013000000000001 0.35895 0.64105 0.978915 0.02108500000000002 0.5 0.5 0.5 0.5 0.5 0.5 0.5 0.5 0.5 0.5 0.5 0.5 0.5 0.5 0.5 0.5 0.5 0.5 0.5 0.5 0.5 0.5 0.5 0.5 0.130165 0.869835 0.411139 0.5888610000000001 0.257302 0.7426980000000001 0.836643 0.16335699999999997 0.5 0.5 0.5 0.5 0.5 0.5 0.5 0.5 0.5 0.5 0.5 0.5 0.5 0.5 0.5 0.5 0.5 0.5 0.5 0.5 0.5 0.5 0.5 0.5 0.5 0.5 0.5 0.5 0.5 0.5 0.5 0.5 0.5 0.5 0.5 0.5 0.652437 0.34756299999999996 0.911078 0.08892199999999995 0.824152 0.175848 0.782602 0.21739799999999998 0.5 0.5 0.5 0.5 0.5 0.5 0.5 0.5 0.5 0.5 0.5 0.5 0.5 0.5 0.5 0.5 0.699599 0.30040100000000003 0.966108 0.03389200000000003 0.867943 0.13205699999999998 0.898035 0.10196499999999997 0.078454 0.921546 0.729301 0.270699 0.153605 0.846395 0.825181 0.17481899999999995 0.5 0.5 0.5 0.5 0.5 0.5 0.5 0.5 0.5 0.5 0.5 0.5 0.5 0.5 0.5 0.5 0.5 0.5 0.5 0.5 0.5 0.5 0.5 0.5 0.5 0.5 0.5 0.5 0.5 0.5 0.5 0.5 0.5 0.5 0.5 0.5 0.831626 0.16837400000000002 0.185655 0.814345 0.684571 0.31542899999999996 0.616548 0.383452 0.5 0.5 0.5 0.5 0.5 0.5 0.5 0.5 0.5 0.5 0.5 0.5 0.5 0.5 0.5 0.5 0.5 0.5 0.5 0.5 0.5 0.5 0.5 0.5 0.5 0.5 0.5 0.5 0.5 0.5 0.5 0.5 0.5 0.5 0.5 0.5 0.5 0.5 0.5 0.5 0.5 0.5 0.5 0.5 0.5 0.5 0.5 0.5 0.5 0.5 0.5 0.5 0.5 0.5 0.5 0.5 0.5 0.5 0.5 0.5 0.5 0.5 0.5 0.5 0.5 0.5 0.5 0.5 0.5 0.5 0.5 0.5 0.5 0.5 0.5 0.5 0.5 0.5 0.5 0.5 0.5 0.5 0.5 0.5 0.251386 0.748614 0.10542 0.89458 0.301029 0.698971 0.818745 0.18125500000000005 0.5 0.5 0.5 0.5 0.5 0.5 0.5 0.5 0.193898 0.806102 0.290374 0.709626 0.584547 0.41545299999999996 0.746405 0.253595 0.5 0.5 0.5 0.5 0.5 0.5 0.5 0.5 0.5 0.5 0.5 0.5 0.5 0.5 0.5 0.5 0.5 0.5 0.5 0.5 0.5 0.5 0.5 0.5 0.5 0.5 0.5 0.5 0.5 0.5 0.5 0.5 0.5 0.5 0.5 0.5 0.5 0.5 0.5 0.5 0.5 0.5 0.5 0.5 0.5 0.5 0.5 0.5 0.5 0.5 0.5 0.5 0.5 0.5 0.5 0.5 0.5 0.5 0.5 0.5 0.825818 0.17418199999999995 0.0950187 0.9049813 0.636544 0.363456 0.0109492 0.9890508 0.5 0.5 0.5 0.5 0.5 0.5 0.5 0.5 0.5 0.5 0.5 0.5 0.5 0.5 0.5 0.5
-1 -2 0
1 2 0
-2 3 0
2 -3 0
-3 4 0
3 -4 0
-4 -107 5 0
-4 107 -5 0
4 -108 5 0
4 108 -5 0
-5 6 0
5 -6 0
-6 -7 0
6 7 0
-7 8 0
7 -8 0
-8 -9 0
8 9 0
-9 -117 10 0
-9 117 -10 0
9 -118 10 0
9 118 -10 0
-1 -119 11 0
-1 119 -11 0
1 -120 11 0
1 120 -11 0
-11 -2 -121 12 0
-11 -2 121 -12 0
-11 2 -122 12 0
-11 2 122 -12 0
11 -2 -123 12 0
11 -2 123 -12 0
11 2 -124 12 0
11 2 124 -12 0
-12 -3 -13 0
-12 3 13 0
12 -3 -13 0
12 3 -13 0
-13 -4 14 0
-13 4 -14 0
13 -4 14 0
13 4 14 0
-14 -5 -15 0
-14 5 15 0
14 -5 15 0
14 5 -15 0
-15 -6 16 0
-15 6 16 0
15 -6 16 0
15 6 -16 0
-16 -7 -141 17 0
-16 -7 141 -17 0
-16 7 -142 17 0
-16 7 142 -17 0
16 -7 -143 17 0
16 -7 143 -17 0
16 7 -144 17 0
16 7 144 -17 0
-17 -8 -18 0
-17 8 18 0
17 -8 -18 0
17 8 -18 0
-18 -9 -19 0
-18 9 19 0
18 -9 -19 0
18 9 -19 0
-19 -10 20 0
-19 10 20 0
19 -10 -20 0
19 10 -20 0
-11 -21 0
11 21 0
-21 -12 -159 22 0
-21 -12 159 -22 0
-21 12 -160 22 0
-21 12 160 -22 0
21 -12 -161 22 0
21 -12 161 -22 0
21 12 -162 22 0
21 12 162 -22 0
-22 -13 -163 23 0
-22 -13 163 -23 0
-22 13 -164 23 0
-22 13 164 -23 0
22 -13 -165 23 0
22 -13 165 -23 0
22 13 -166 23 0
22 13 166 -23 0
-23 -14 24 0
-23 14 -24 0
23 -14 24 0
23 14 24 0
-24 -15 25 0
-24 15 25 0
24 -15 -25 0
24 15 -25 0
-25 -16 26 0
-25 16 -26 0
25 -16 26 0
25 16 -26 0
-26 -17 -27 0
-26 17 -27 0
26 -17 -27 0
26 17 27 0
-27 -18 -183 28 0
-27 -18 183 -28 0
-27 18 -184 28 0
-27 18 184 -28 0
27 -18 -185 28 0
27 -18 185 -28 0
27 18 -186 28 0
27 18 186 -28 0
-28 -19 -187 29 0
-28 -19 187 -29 0
-28 19 -188 29 0
-28 19 188 -29 0
28 -19 -189 29 0
28 -19 189 -29 0
28 19 -190 29 0
28 19 190 -29 0
-29 -20 -191 30 0
-29 -20 191 -30 0
-29 20 -192 30 0
-29 20 192 -30 0
29 -20 -193 30 0
29 -20 193 -30 0
29 20 -194 30 0
29 20 194 -30 0
-21 -31 0
21 31 0
-31 -22 -197 32 0
-31 -22 197 -32 0
-31 22 -198 32 0
-31 22 198 -32 0
31 -22 -199 32 0
31 -22 199 -32 0
31 22 -200 32 0
31 22 200 -32 0
-32 -23 33 0
-32 23 33 0
32 -23 33 0
32 23 -33 0
-33 -24 34 0
-33 24 34 0
33 -24 -34 0
33 24 34 0
-34 -25 -35 0
-34 25 35 0
34 -25 -35 0
34 25 -35 0
-35 -26 36 0
-35 26 -36 0
35 -26 -36 0
35 26 -36 0
-36 -27 37 0
-36 27 37 0
36 -27 37 0
36 27 -37 0
-37 -28 -38 0
-37 28 38 0
37 -28 38 0
37 28 38 0
-38 -29 -39 0
-38 29 -39 0
38 -29 39 0
38 29 -39 0
-39 -30 -40 0
-39 30 40 0
39 -30 40 0
39 30 40 0
-31 -233 41 0
-31 233 -41 0
31 -234 41 0
31 234 -41 0
-41 -32 42 0
-41 32 -42 0
41 -32 42 0
41 32 -42 0
-42 -33 -43 0
-42 33 43 0
42 -33 43 0
42 33 43 0
-43 -34 44 0
-43 34 -44 0
43 -34 44 0
43 34 44 0
-44 -35 -45 0
-44 35 -45 0
44 -35 45 0
44 35 45 0
-45 -36 -46 0
-45 36 46 0
45 -36 46 0
45 36 46 0
-46 -37 -47 0
-46 37 -47 0
46 -37 47 0
46 37 47 0
-47 -38 -259 48 0
-47 -38 259 -48 0
-47 38 -260 48 0
-47 38 260 -48 0
47 -38 -261 48 0
47 -38 261 -48 0
47 38 -262 48 0
47 38 262 -48 0
-48 -39 49 0
-48 39 -49 0
48 -39 -49 0
48 39 49 0
-49 -40 -50 0
-49 40 -50 0
49 -40 50 0
49 40 50 0
-41 -271 51 0
-41 271 -51 0
41 -272 51 0
41 272 -51 0
-51 -42 52 0
-51 42 52 0
51 -42 52 0
51 42 -52 0
-52 -43 -53 0
-52 43 53 0
52 -43 53 0
52 43 53 0
-53 -44 -54 0
-53 44 -54 0
53 -44 54 0
53 44 54 0
-54 -45 -285 55 0
-54 -45 285 -55 0
-54 45 -286 55 0
-54 45 286 -55 0
54 -45 -287 55 0
54 -45 287 -55 0
54 45 -288 55 0
54 45 288 -55 0
-55 -46 -56 0
-55 46 56 0
55 -46 -56 0
55 46 -56 0
-56 -47 57 0
-56 47 -57 0
56 -47 -57 0
56 47 -57 0
-57 -48 58 0
-57 48 58 0
57 -48 58 0
57 48 -58 0
-58 -49 -301 59 0
-58 -49 301 -59 0
-58 49 -302 59 0
-58 49 302 -59 0
58 -49 -303 59 0
58 -49 303 -59 0
58 49 -304 59 0
58 49 304 -59 0
-59 -50 60 0
-59 50 60 0
59 -50 -60 0
59 50 60 0
-51 61 0
51 -61 0
-61 -52 62 0
-61 52 -62 0
61 -52 62 0
61 52 62 0
-62 -53 -63 0
-62 53 63 0
62 -53 63 0
62 53 63 0
-63 -54 64 0
-63 54 64 0
63 -54 -64 0
63 54 64 0
-64 -55 -323 65 0
-64 -55 323 -65 0
-64 55 -324 65 0
-64 55 324 -65 0
64 -55 -325 65 0
64 -55 325 -65 0
64 55 -326 65 0
64 55 326 -65 0
-65 -56 -66 0
-65 56 -66 0
65 -56 66 0
65 56 -66 0
-66 -57 67 0
-66 57 67 0
66 -57 -67 0
66 57 -67 0
-67 -58 -335 68 0
-67 -58 335 -68 0
-67 58 -336 68 0
-67 58 336 -68 0
67 -58 -337 68 0
67 -58 337 -68 0
67 58 -338 68 0
67 58 338 -68 0
-68 -59 -339 69 0
-68 -59 339 -69 0
-68 59 -340 69 0
-68 59 340 -69 0
68 -59 -341 69 0
68 -59 341 -69 0
68 59 -342 69 0
68 59 342 -69 0
-69 -60 70 0
-69 60 70 0
69 -60 70 0
69 60 -70 0
-61 71 0
61 -71 0
-71 -62 72 0
-71 62 72 0
71 -62 72 0
71 62 -72 0
-72 -63 -73 0
-72 63 -73 0
72 -63 73 0
72 63 -73 0
-73 -64 -74 0
-73 64 -74 0
73 -64 74 0
73 64 -74 0
-74 -65 -361 75 0
-74 -65 361 -75 0
-74 65 -362 75 0
-74 65 362 -75 0
74 -65 -363 75 0
74 -65 363 -75 0
74 65 -364 75 0
74 65 364 -75 0
-75 -66 -76 0
-75 66 -76 0
75 -66 76 0
75 66 76 0
-76 -67 -77 0
-76 67 -77 0
76 -67 77 0
76 67 77 0
-77 -68 -78 0
-77 68 78 0
77 -68 78 0
77 68 78 0
-78 -69 -79 0
-78 69 79 0
78 -69 79 0
78 69 -79 0
-79 -70 -80 0
-79 70 -80 0
79 -70 -80 0
79 70 80 0
-71 81 0
71 -81 0
-81 -72 82 0
-81 72 -82 0
81 -72 82 0
81 72 -82 0
-82 -73 83 0
-82 73 83 0
82 -73 83 0
82 73 -83 0
-83 -74 84 0
-83 74 -84 0
83 -74 -84 0
83 74 -84 0
-84 -75 85 0
-84 75 85 0
84 -75 -85 0
84 75 85 0
-85 -76 86 0
-85 76 86 0
85 -76 -86 0
85 76 86 0
-86 -77 -407 87 0
-86 -77 407 -87 0
-86 77 -408 87 0
-86 77 408 -87 0
86 -77 -409 87 0
86 -77 409 -87 0
86 77 -410 87 0
86 77 410 -87 0
-87 -78 -88 0
-87 78 88 0
87 -78 -88 0
87 78 88 0
-88 -79 -415 89 0
-88 -79 415 -89 0
-88 79 -416 89 0
-88 79 416 -89 0
88 -79 -417 89 0
88 -79 417 -89 0
88 79 -418 89 0
88 79 418 -89 0
-89 -80 90 0
-89 80 -90 0
89 -80 -90 0
89 80 -90 0
-81 -91 0
81 91 0
-91 -82 92 0
-91 82 92 0
91 -82 -92 0
91 82 -92 0
-92 -83 93 0
-92 83 -93 0
92 -83 93 0
92 83 -93 0
-93 -84 -94 0
-93 84 -94 0
93 -84 94 0
93 84 -94 0
-94 -85 95 0
-94 85 95 0
94 -85 95 0
94 85 -95 0
-95 -86 -96 0
-95 86 96 0
95 -86 -96 0
95 86 -96 0
-96 -87 97 0
-96 87 97 0
96 -87 -97 0
96 87 97 0
-97 -88 -449 98 0
-97 -88 449 -98 0
-97 88 -450 98 0
-97 88 450 -98 0
97 -88 -451 98 0
97 -88 451 -98 0
97 88 -452 98 0
97 88 452 -98 0
-98 -89 99 0
-98 89 -99 0
98 -89 99 0
98 89 99 0
-99 -90 100 0
-99 90 -100 0
99 -90 100 0
99 90 -100 0
100 0
