data/benchmarks/bayes/75-10-1-q.gr
p tw 460 497
29 194
12 123
38 261
7 17
67 68
99 100
59 302
67 77
8 9
8 18
40 50
87 409
22 163
41 271
41 42
73 74
41 51
25 34
73 83
97 449
14 15
28 188
14 24
74 75
74 84
45 286
15 16
29 189
47 48
15 25
47 57
59 68
55 326
48 49
48 58
80 90
31 234
32 199
58 337
81 82
33 42
7 142
81 91
28 183
22 23
84 93
11 121
22 32
21 162
66 75
55 56
38 260
7 16
55 65
59 301
58 67
65 362
40 49
22 162
69 341
89 417
73 82
32 41
28 187
14 23
79 418
65 74
47 56
6 15
31 197
21 22
21 31
80 89
39 48
32 198
58 336
86 407
54 55
54 64
11 120
87 88
75 361
87 97
21 161
28 29
28 38
88 89
65 325
88 98
20 192
29 30
68 339
58 304
41 233
61 62
61 71
65 361
2 3
17 141
2 12
69 340
62 63
94 95
89 416
3 4
35 36
35 45
95 96
2 124
36 37
68 69
55 288
68 78
69 70
13 166
69 79
58 335
54 63
13 22
88 452
43 44
43 53
27 185
87 96
47 261
46 55
19 190
76 77
12 160
28 37
76 86
65 324
48 262
20 191
79 88
31 200
68 338
58 303
20 29
2 11
54 287
51 272
77 410
53 62
35 44
75 364
10 118
9 10
30 194
2 123
86 95
9 19
23 164
49 302
68 77
27 36
42 43
16 143
42 52
68 342
13 165
60 69
88 415
17 144
75 76
75 85
88 451
16 17
16 26
27 184
47 260
19 189
74 363
49 50
49 59
12 159
65 323
82 83
58 302
82 92
9 117
22 199
23 24
23 33
83 84
54 286
51 271
77 409
18 183
24 25
56 57
98 450
56 66
64 326
30 193
57 58
89 90
89 99
23 163
49 301
67 337
59 342
30 40
16 142
31 32
34 43
64 65
29 193
12 122
5 6
67 76
74 362
97 98
8 17
87 408
82 91
22 198
88 418
77 408
74 83
45 285
98 449
29 188
56 65
15 24
55 325
89 98
67 336
48 57
22 166
59 341
31 233
63 64
63 73
4 5
7 141
4 14
97 452
22 31
37 38
37 47
4 108
29 192
12 121
38 259
55 64
74 361
70 80
1 120
29 39
11 12
87 407
22 161
11 21
5 108
62 72
44 45
44 54
3 13
28 186
11 124
79 417
29 187
36 46
96 97
18 19
18 28
59 304
55 324
67 335
22 165
59 340
32 197
10 20
97 451
28 190
11 119
21 160
85 86
45 288
4 107
29 191
88 97
77 78
29 38
77 87
22 160
86 410
69 339
62 71
89 415
7 144
51 52
3 12
28 185
51 61
11 123
79 416
55 287
36 45
38 262
59 303
55 323
69 78
65 364
10 19
41 272
25 26
25 35
28 189
43 52
21 159
17 18
17 27
76 85
48 261
31 199
68 337
50 60
77 86
32 200
58 338
86 409
83 93
24 34
28 184
84 85
84 94
75 363
10 117
2 122
9 18
57 67
55 286
20 194
58 59
58 68
42 51
68 341
90 100
13 164
65 363
31 41
17 143
91 92
69 342
75 84
89 418
88 450
32 33
32 42
16 25
64 74
27 183
47 259
5 15
19 188
65 66
17 26
65 75
49 58
6 7
48 260
6 16
31 198
68 336
58 301
50 59
98 99
39 40
39 49
23 32
86 408
54 285
83 92
72 73
24 33
72 82
75 362
64 325
30 192
2 121
57 66
55 285
12 162
65 326
20 193
30 39
16 141
68 340
41 234
13 163
90 99
17 142
88 449
18 186
64 73
38 39
5 14
19 187
38 48
23 166
49 304
48 259
71 72
68 335
71 81
12 13
22 197
12 22
88 417
13 14
77 407
45 46
13 23
45 55
72 81
27 186
64 324
46 47
78 79
47 262
30 191
46 56
78 88
12 161
19 20
19 29
79 80
79 89
63 72
52 53
20 30
4 13
52 62
54 288
53 54
18 185
53 63
37 46
85 95
98 452
26 27
26 36
86 87
38 47
86 96
70 79
1 119
23 165
27 28
49 303
27 37
16 144
5 107
12 21
60 70
44 53
88 416
1 2
1 11
93 94
45 54
12 124
64 323
18 27
74 364
78 87
19 28
22 164
59 339
87 410
9 118
22 200
52 61
97 450
18 184
45 287
85 94
98 451
29 190
59 60
26 35
59 69
67 338
22 159
92 93
33 34
33 43
7 143
11 122
34 35
79 415
66 67
34 44
66 76
7 8
